self-compositions/words_1/words_310_SAT.qaiger
aag 78 24 0 1 54
46
4
18
38
6
32
10
40
12
8
44
42
26
20
22
48
16
24
34
14
2
28
30
36
157
50 7 5
52 50 9
54 52 11
56 54 13
58 56 15
60 49 32
62 48 33
64 63 61
66 65 58
68 47 30
70 46 31
72 71 69
74 72 57
76 23 5
78 22 4
80 79 77
82 80 39
84 40 24
86 41 25
88 87 85
90 89 50
92 88 51
94 93 91
96 95 83
98 96 75
100 98 67
102 64 59
104 73 56
106 81 38
108 35 18
110 34 19
112 111 109
114 36 21
116 37 20
118 117 115
120 118 113
122 120 107
124 42 27
126 43 26
128 127 125
130 129 52
132 128 53
134 133 131
136 134 122
138 45 29
140 44 28
142 141 139
144 143 54
146 142 55
148 147 145
150 149 136
152 150 105
154 152 103
156 154 100
i0 1 x[6]
i1 2 y[1]
i2 2 z[0]
i3 1 x[2]
i4 2 y[2]
i5 2 z[7]
i6 2 y[4]
i7 1 x[3]
i8 2 y[5]
i9 2 y[3]
i10 1 x[5]
i11 1 x[4]
i12 2 z[4]
i13 2 z[1]
i14 2 z[2]
i15 1 x[7]
i16 2 y[7]
i17 2 z[3]
i18 1 x[0]
i19 2 y[6]
i20 2 y[0]
i21 2 z[5]
i22 2 z[6]
i23 1 x[1]
o0 bool[0]
c
simplified
  !=
    subtract
      1
      2 y
    xor
      2 y
      xor
        2 z
        1 x
