self-compositions/words_1/words_310_SAT.qaiger.qdimacs
p cnf 78 163
a 17 18 19 20 21 22 23 24 0
e 1 2 3 4 5 6 7 8 9 10 11 12 13 14 15 16 25 26 27 28 29 30 31 32 33 34 35 36 37 38 39 40 41 42 43 44 45 46 47 48 49 50 51 52 53 54 55 56 57 58 59 60 61 62 63 64 65 66 67 68 69 70 71 72 73 74 75 76 77 78 0
3 2 25 0
-3 -25 0
-2 -25 0
-25 4 26 0
25 -26 0
-4 -26 0
-26 5 27 0
26 -27 0
-5 -27 0
-27 6 28 0
27 -28 0
-6 -28 0
-28 7 29 0
28 -29 0
-7 -29 0
24 -16 30 0
-24 -30 0
16 -30 0
-24 16 31 0
24 -31 0
-16 -31 0
31 30 32 0
-31 -32 0
-30 -32 0
32 -29 33 0
-32 -33 0
29 -33 0
23 -15 34 0
-23 -34 0
15 -34 0
-23 15 35 0
23 -35 0
-15 -35 0
35 34 36 0
-35 -36 0
-34 -36 0
-36 28 37 0
36 -37 0
-28 -37 0
11 2 38 0
-11 -38 0
-2 -38 0
-11 -2 39 0
11 -39 0
2 -39 0
39 38 40 0
-39 -40 0
-38 -40 0
-40 19 41 0
40 -41 0
-19 -41 0
-20 -12 42 0
20 -42 0
12 -42 0
20 12 43 0
-20 -43 0
-12 -43 0
43 42 44 0
-43 -44 0
-42 -44 0
44 -25 45 0
-44 -45 0
25 -45 0
-44 25 46 0
44 -46 0
-25 -46 0
46 45 47 0
-46 -47 0
-45 -47 0
47 41 48 0
-47 -48 0
-41 -48 0
-48 37 49 0
48 -49 0
-37 -49 0
-49 33 50 0
49 -50 0
-33 -50 0
-32 29 51 0
32 -51 0
-29 -51 0
36 -28 52 0
-36 -52 0
28 -52 0
40 -19 53 0
-40 -53 0
19 -53 0
17 -9 54 0
-17 -54 0
9 -54 0
-17 9 55 0
17 -55 0
-9 -55 0
55 54 56 0
-55 -56 0
-54 -56 0
-18 10 57 0
18 -57 0
-10 -57 0
18 -10 58 0
-18 -58 0
10 -58 0
58 57 59 0
-58 -59 0
-57 -59 0
-59 56 60 0
59 -60 0
-56 -60 0
-60 53 61 0
60 -61 0
-53 -61 0
-21 13 62 0
21 -62 0
-13 -62 0
21 -13 63 0
-21 -63 0
13 -63 0
63 62 64 0
-63 -64 0
-62 -64 0
64 -26 65 0
-64 -65 0
26 -65 0
-64 26 66 0
64 -66 0
-26 -66 0
66 65 67 0
-66 -67 0
-65 -67 0
-67 -61 68 0
67 -68 0
61 -68 0
22 14 69 0
-22 -69 0
-14 -69 0
-22 -14 70 0
22 -70 0
14 -70 0
70 69 71 0
-70 -71 0
-69 -71 0
71 -27 72 0
-71 -72 0
27 -72 0
-71 27 73 0
71 -73 0
-27 -73 0
73 72 74 0
-73 -74 0
-72 -74 0
74 -68 75 0
-74 -75 0
68 -75 0
-75 52 76 0
75 -76 0
-52 -76 0
-76 51 77 0
76 -77 0
-51 -77 0
-77 -50 78 0
77 -78 0
50 -78 0
-78 0
